NAME: hypercube_embed_d4_n16
TYPE: TSP
DIMENSION: 16
EDGE_WEIGHT_TYPE: EUC_2D
NODE_COORD_SECTION
1 0.000000 0.000000
2 10.000000 0.000000
3 20.000000 0.000000
4 30.000000 0.000000
5 0.000000 10.000000
6 10.000000 10.000000
7 20.000000 10.000000
8 30.000000 10.000000
9 0.000000 20.000000
10 10.000000 20.000000
11 20.000000 20.000000
12 30.000000 20.000000
13 0.000000 30.000000
14 10.000000 30.000000
15 20.000000 30.000000
16 30.000000 30.000000
EOF
